# initialization
System = Co3Sn2S2
ISTART = 0 # for new calculation
ICHARG = 2
LREAL= A

# electronic optimization
ENCUT  = 400 # energy cut off 
ISMEAR = -5 # Tetrahedron method
LORBIT = 11 
EDIFF = 1E-06 # electronic convergence treshold, the lower the more precise results

# Ionic relaxation 
IBRION = -1 
NSW = 0 # NO ionic movement 

# SOC
 ISYM =0
 ISPIN = 2
 LNONCOLLINEAR = T
 NUPDOWN=0
 LSORBIT = T
 SAXIS =   0 0 1
 GGA_COMPAT = F
 LMAXMIX = 4
 NBANDS = 252


 NCORE = 4
 
